HUN,8,6,510
0,26,1,30,3,26,5,23,4,25,2,21
5,24,3,21,2,27,4,22,0,29,1,29
3,29,0,30,4,25,5,30,1,23,2,24
0,23,1,28,5,24,3,30,2,30,4,25
1,24,4,29,2,26,5,22,3,23,0,21
5,29,2,23,0,30,3,30,1,27,4,28
2,30,0,22,1,26,4,25,3,24,5,29
2,30,3,22,5,25,4,22,1,22,0,25
